Version identifier: 22.1.0.0 | 2022-03-09 | 1a383f8ce
CPXPARAM_Read_DataCheck                          1
1 of 1 MIP starts provided solutions.
MIP start 'm1' defined initial solution with objective 28.0000.
Tried aggregator 3 times.
MIP Presolve eliminated 10708 rows and 1826 columns.
MIP Presolve modified 227 coefficients.
Aggregator did 9186 substitutions.
Reduced MIP has 1949 rows, 9652 columns, and 21239 nonzeros.
Reduced MIP has 9634 binaries, 18 generals, 0 SOSs, and 0 indicators.
Presolve time = 0.07 sec. (77.66 ticks)
Probing fixed 28 vars, tightened 0 bounds.
Probing changed sense of 6 constraints.
Probing time = 0.02 sec. (3.19 ticks)
Tried aggregator 2 times.
Detecting symmetries...
MIP Presolve eliminated 26 rows and 35 columns.
Aggregator did 12 substitutions.
Reduced MIP has 1911 rows, 9605 columns, and 21080 nonzeros.
Reduced MIP has 9587 binaries, 18 generals, 0 SOSs, and 0 indicators.
Presolve time = 0.02 sec. (21.72 ticks)
Probing fixed 1 vars, tightened 0 bounds.
Probing time = 0.02 sec. (3.43 ticks)
Clique table members: 19840.
MIP emphasis: balance optimality and feasibility.
MIP search method: dynamic search.
Parallel mode: deterministic, using up to 8 threads.
Root relaxation solution time = 0.07 sec. (62.67 ticks)

        Nodes                                         Cuts/
   Node  Left     Objective  IInf  Best Integer    Best Bound    ItCnt     Gap

*     0+    0                           28.0000        0.0000           100.00%
      0     0       18.3538  1318       28.0000       18.3538     1650   34.45%
      0     0       27.0000   475       28.0000      Cuts: 43     3339    3.57%
      0     0       27.0000   554       28.0000      Cuts: 35     3911    3.57%

Repeating presolve.
Tried aggregator 3 times.
MIP Presolve eliminated 436 rows and 6221 columns.
MIP Presolve modified 4 coefficients.
Aggregator did 308 substitutions.
Reduced MIP has 1167 rows, 3076 columns, and 7323 nonzeros.
Reduced MIP has 3076 binaries, 0 generals, 0 SOSs, and 0 indicators.
Presolve time = 0.02 sec. (19.27 ticks)
Probing fixed 57 vars, tightened 0 bounds.
Probing changed sense of 1 constraints.
Probing time = 0.06 sec. (47.31 ticks)
Tried aggregator 2 times.
MIP Presolve eliminated 35 rows and 82 columns.
MIP Presolve modified 2 coefficients.
Aggregator did 27 substitutions.
Reduced MIP has 1105 rows, 2967 columns, and 7037 nonzeros.
Reduced MIP has 2967 binaries, 0 generals, 0 SOSs, and 0 indicators.
Presolve time = 0.01 sec. (7.91 ticks)
Probing time = 0.00 sec. (3.54 ticks)
Tried aggregator 2 times.
Detecting symmetries...
MIP Presolve eliminated 2 rows and 2 columns.
Aggregator did 3 substitutions.
Reduced MIP has 1100 rows, 2962 columns, and 7024 nonzeros.
Reduced MIP has 2962 binaries, 0 generals, 0 SOSs, and 0 indicators.
Presolve time = 0.01 sec. (6.18 ticks)
Represolve time = 0.11 sec. (100.18 ticks)
Probing time = 0.00 sec. (3.50 ticks)
Clique table members: 7132.
MIP emphasis: balance optimality and feasibility.
MIP search method: dynamic search.
Parallel mode: deterministic, using up to 8 threads.
Root relaxation solution time = 0.09 sec. (104.35 ticks)

        Nodes                                         Cuts/
   Node  Left     Objective  IInf  Best Integer    Best Bound    ItCnt     Gap

*     0+    0                           28.0000       27.0000             3.57%
      0     0       27.0000   394       28.0000       27.0000     5939    3.57%
      0     0       27.0000   238       28.0000      Cuts: 18     6839    3.57%
      0     0       27.0000   309       28.0000       Cuts: 4     7139    3.57%
      0     0       27.0000   335       28.0000   ZeroHalf: 2     7282    3.57%
      0     2       27.0000   184       28.0000       27.0000     7282    3.57%
Elapsed time = 4.75 sec. (3066.27 ticks, tree = 0.02 MB, solutions = 1)
      7     6       27.0000   308       28.0000       27.0000     9991    3.57%
     24    13        cutoff             28.0000       27.0000    15038    3.57%
    149    46       27.0000    57       28.0000       27.0000    40312    3.57%
    299    89       27.0000   171       28.0000       27.0000    59399    3.57%
    424   115        cutoff             28.0000       27.0000    78545    3.57%
    507   109       27.0000   154       28.0000       27.0000   100738    3.57%
    606   109       27.0000   161       28.0000       27.0000   133862    3.57%
    705   112        cutoff             28.0000       27.0000   150248    3.57%
    792   126       27.0000   201       28.0000       27.0000   163134    3.57%
   1200   132       27.0000   239       28.0000       27.0000   259123    3.57%
Elapsed time = 9.38 sec. (6218.65 ticks, tree = 0.35 MB, solutions = 1)
   1703   187       27.0000   214       28.0000       27.0000   335456    3.57%
   2833   271       27.0000   143       28.0000       27.0000   499650    3.57%
   4349   275       27.0000   235       28.0000       27.0000   674052    3.57%
   6194   333       27.0000    97       28.0000       27.0000   864314    3.57%

Performing restart 1

Repeating presolve.
Tried aggregator 2 times.
MIP Presolve eliminated 1 rows and 1 columns.
Aggregator did 4 substitutions.
Reduced MIP has 1095 rows, 2957 columns, and 7011 nonzeros.
Reduced MIP has 2957 binaries, 0 generals, 0 SOSs, and 0 indicators.
Presolve time = 0.00 sec. (4.59 ticks)
Tried aggregator 1 time.
Reduced MIP has 1095 rows, 2957 columns, and 7011 nonzeros.
Reduced MIP has 2957 binaries, 0 generals, 0 SOSs, and 0 indicators.
Presolve time = 0.01 sec. (5.29 ticks)
Represolve time = 0.07 sec. (60.50 ticks)
   6876     0       27.0000   366       28.0000   ZeroHalf: 1   980456    3.57%
   6876     0       27.0000   351       28.0000      Cuts: 43   981015    3.57%
   6876     0       27.0000   275       28.0000   ZeroHalf: 1   981145    3.57%
   6876     0       27.0000   288       28.0000      Cuts: 34   981377    3.57%
   6876     0       27.0000   259       28.0000   ZeroHalf: 1   981537    3.57%
   6876     0       27.0000   314       28.0000      Cuts: 35   981929    3.57%
   6876     2       27.0000   143       28.0000       27.0000   981929    3.57%
   6897    15       27.0000   204       28.0000       27.0000   990675    3.57%
   7051    55       27.0000   220       28.0000       27.0000  1018086    3.57%
   7295    85       27.0000   382       28.0000       27.0000  1081547    3.57%
   7482    77        cutoff             28.0000       27.0000  1186334    3.57%
   7635    81       27.0000   253       28.0000       27.0000  1256563    3.57%
Elapsed time = 29.56 sec. (18253.07 ticks, tree = 0.18 MB, solutions = 1)
   7832    40        cutoff             28.0000       27.0000  1353518    3.57%

Clique cuts applied:  5
Cover cuts applied:  1
Mixed integer rounding cuts applied:  3
Zero-half cuts applied:  110
Lift and project cuts applied:  4
Gomory fractional cuts applied:  17

Root node processing (before b&c):
  Real time             =    4.72 sec. (3052.80 ticks)
Parallel b&c, 8 threads:
  Real time             =   27.02 sec. (16647.36 ticks)
  Sync time (average)   =    4.34 sec.
  Wait time (average)   =    0.04 sec.
                          ------------
Total (root+branch&cut) =   31.74 sec. (19700.16 ticks)
